language ESSENCE' 1.0

letting jobs = 102
letting horizon = 803
letting resourcesRenew = 2
letting resourcesNonrenew = 2
letting resourceLimits = [11, 10, 475, 480]
letting successors = [[2, 4, 5, 6, 7, 9], [24, 21, 15, 14, 13, 10, 3], [18, 16, 12, 11, 8], [39, 33, 27, 24, 20, 17, 16, 11, 10], [39, 33, 25, 22, 21, 16, 12], [31, 26, 22, 21, 18, 16], [33, 31, 26, 25, 23, 22, 21, 19], [39, 33, 31, 25, 22, 19, 17], [39, 33, 11], [31, 30, 29, 26, 25, 23], [31, 26, 25, 22, 19], [34, 27, 26, 23, 20], [47, 34, 32, 31, 30, 29, 23], [44, 39, 31, 29, 19], [42, 40, 35, 31, 28, 26, 25], [29, 23, 19], [34, 30, 29, 28, 26], [40, 39, 34, 19], [47, 43, 32, 30, 28], [47, 44, 32, 31, 30], [42, 29, 27], [51, 48, 47, 46, 45, 44, 40, 38, 37, 34], [51, 44, 43, 42, 40, 28], [51, 46, 43, 42, 40, 37, 32], [51, 48, 47, 46, 45, 44, 43, 34], [47, 46, 44, 38, 32], [46, 43, 37, 32], [48, 46, 38, 37, 36], [55, 51, 48, 46, 40, 37], [59, 48, 42, 37, 35], [63, 48, 46, 45, 37], [55, 48, 45, 36], [59, 50, 45, 44, 42, 41], [57, 55, 36], [63, 57, 54, 51, 50, 41], [63, 59, 58, 50, 41], [58, 57, 54, 50, 41], [63, 58, 57, 55, 54, 50, 49], [69, 66, 59, 55, 52, 50, 46], [69, 63, 52, 50, 49], [69, 66, 62, 61, 52, 49], [63, 62, 57, 53, 52], [69, 66, 58, 55, 53], [75, 74, 63, 62, 61, 60, 56], [75, 74, 66, 61, 52], [61, 53, 49], [75, 73, 71, 69, 65, 64, 63, 62, 61, 60], [75, 56, 54], [75, 74, 60, 56], [71, 61, 53], [66, 61, 56], [60, 56], [75, 73, 67, 65, 64, 60], [73, 64, 62, 61, 60], [75, 71, 65, 62, 61], [73, 71, 68, 67, 65, 64], [86, 75, 71, 70, 68, 66], [71, 65, 61], [86, 68, 67, 64], [86, 85, 81, 80, 72, 70, 68], [85, 80, 76, 67], [86, 68, 67], [85, 80, 67], [85, 81, 80, 76, 72, 70], [89, 86, 85, 84, 83, 82, 79, 78, 77], [80, 79, 77, 72], [77, 72, 70], [101, 89, 84, 83, 82, 79, 78, 76], [101, 89, 88, 85, 84, 83, 81, 76], [101, 100, 97, 89, 84, 79, 78], [99, 98, 97, 89, 88, 82, 77], [97, 89, 84, 83, 82, 78], [101, 98, 97, 89, 80, 79, 78], [99, 98, 97, 96, 95, 92, 90, 89, 88, 87], [101, 95, 88, 85, 84, 81], [100, 99, 98, 97, 96, 95, 94, 93, 92, 90, 87], [101, 100, 95, 94, 81], [99, 96, 94, 92, 90, 88, 87], [95, 93, 92, 90, 87], [96, 94, 92, 91, 88], [93, 92, 90, 87], [96, 94, 90, 87], [100, 95, 94, 91], [98, 92, 90], [97, 93, 90], [94, 92, 90], [91], [93], [94], [102], [102], [102], [102], [102], [102], [102], [102], [102], [102], [102], [102], []]
letting durations = [[0], [5, 7, 8], [3, 5, 9], [1, 4, 8], [1, 2, 10], [1, 7, 10], [3, 7, 8], [1, 3, 8], [2, 7, 10], [3, 6, 8], [1, 4, 8], [3, 5, 9], [3, 8, 9], [2, 6, 7], [3, 6, 7], [3, 4, 8], [3, 8, 9], [2, 9, 10], [1, 3, 6], [3, 5, 6], [6, 8, 10], [2, 3, 4], [2, 2, 6], [1, 2, 7], [3, 5, 8], [1, 4, 10], [2, 7, 8], [2, 4, 10], [1, 1, 6], [1, 3, 6], [3, 4, 7], [8, 9, 9], [5, 6, 8], [1, 3, 5], [1, 7, 7], [3, 5, 6], [5, 7, 10], [1, 2, 6], [1, 5, 6], [4, 4, 7], [1, 5, 6], [5, 9, 10], [6, 10, 10], [1, 7, 8], [3, 7, 10], [6, 8, 8], [4, 7, 8], [2, 3, 7], [3, 4, 5], [8, 9, 9], [3, 4, 6], [2, 5, 6], [5, 9, 10], [5, 5, 10], [5, 8, 10], [1, 9, 10], [7, 8, 10], [1, 4, 8], [1, 5, 5], [1, 4, 8], [7, 9, 10], [4, 8, 9], [1, 4, 7], [4, 8, 9], [2, 3, 4], [6, 8, 10], [4, 5, 9], [4, 5, 10], [1, 3, 4], [1, 7, 8], [5, 7, 8], [4, 6, 8], [1, 5, 5], [3, 3, 4], [1, 2, 6], [2, 3, 5], [1, 2, 6], [3, 7, 9], [2, 6, 9], [1, 7, 9], [6, 9, 10], [2, 10, 10], [4, 6, 7], [3, 5, 9], [3, 9, 10], [6, 7, 9], [4, 8, 9], [4, 6, 10], [1, 7, 8], [5, 7, 9], [4, 7, 9], [6, 8, 9], [2, 8, 10], [1, 3, 7], [3, 8, 9], [6, 9, 9], [1, 4, 5], [4, 6, 10], [3, 4, 9], [6, 7, 10], [4, 6, 8], [0]]
letting resourceUsage = [[[0, 0, 0, 0]], [[3, 0, 5, 6], [0, 3, 5, 4], [3, 0, 5, 2]], [[4, 0, 4, 1], [2, 0, 4, 1], [1, 0, 4, 1]], [[3, 0, 4, 8], [0, 2, 3, 7], [1, 0, 3, 7]], [[0, 4, 8, 2], [0, 2, 6, 2], [1, 0, 2, 2]], [[0, 1, 8, 9], [3, 0, 7, 4], [3, 0, 7, 2]], [[4, 0, 2, 5], [0, 3, 2, 3], [0, 1, 1, 3]], [[0, 4, 5, 5], [0, 3, 2, 5], [2, 0, 1, 5]], [[0, 2, 5, 4], [1, 0, 5, 2], [0, 1, 5, 2]], [[0, 3, 6, 7], [2, 0, 4, 5], [1, 0, 1, 5]], [[0, 3, 7, 7], [2, 0, 4, 5], [2, 0, 4, 2]], [[5, 0, 6, 6], [0, 1, 5, 6], [1, 0, 4, 6]], [[1, 0, 8, 8], [1, 0, 6, 7], [0, 2, 4, 6]], [[0, 3, 7, 4], [4, 0, 5, 4], [4, 0, 4, 4]], [[2, 0, 4, 6], [0, 4, 3, 4], [2, 0, 2, 3]], [[0, 2, 9, 8], [0, 2, 9, 6], [0, 1, 8, 2]], [[4, 0, 3, 1], [0, 2, 3, 1], [4, 0, 2, 1]], [[1, 0, 1, 4], [0, 2, 1, 3], [1, 0, 1, 1]], [[0, 1, 6, 7], [3, 0, 5, 7], [2, 0, 4, 5]], [[0, 4, 8, 9], [0, 3, 7, 7], [0, 3, 6, 4]], [[0, 4, 7, 6], [4, 0, 6, 6], [0, 2, 4, 4]], [[5, 0, 5, 8], [2, 0, 5, 7], [2, 0, 5, 6]], [[0, 4, 4, 9], [2, 0, 4, 8], [0, 1, 3, 7]], [[3, 0, 9, 3], [0, 3, 9, 3], [2, 0, 9, 3]], [[4, 0, 9, 8], [3, 0, 6, 7], [0, 1, 3, 4]], [[0, 5, 3, 3], [2, 0, 2, 3], [1, 0, 2, 2]], [[0, 2, 9, 9], [0, 1, 8, 9], [0, 1, 7, 9]], [[2, 0, 4, 5], [2, 0, 3, 4], [0, 3, 2, 4]], [[0, 4, 3, 9], [1, 0, 2, 8], [1, 0, 1, 8]], [[5, 0, 10, 7], [0, 2, 6, 4], [0, 1, 6, 4]], [[0, 3, 3, 4], [0, 3, 1, 3], [0, 3, 1, 2]], [[0, 1, 8, 9], [0, 1, 4, 8], [4, 0, 3, 8]], [[4, 0, 7, 8], [0, 3, 4, 6], [2, 0, 2, 6]], [[1, 0, 8, 4], [0, 3, 5, 4], [0, 3, 3, 4]], [[0, 3, 4, 3], [0, 3, 4, 2], [2, 0, 4, 2]], [[4, 0, 8, 9], [3, 0, 6, 4], [3, 0, 5, 2]], [[2, 0, 9, 8], [0, 4, 7, 4], [0, 3, 5, 4]], [[0, 3, 5, 4], [0, 3, 5, 3], [2, 0, 4, 2]], [[0, 3, 6, 9], [3, 0, 6, 8], [1, 0, 6, 8]], [[0, 4, 9, 6], [4, 0, 9, 4], [4, 0, 8, 3]], [[0, 5, 9, 6], [4, 0, 5, 6], [3, 0, 4, 6]], [[0, 4, 6, 5], [4, 0, 4, 4], [4, 0, 3, 4]], [[0, 1, 1, 6], [0, 1, 1, 5], [3, 0, 1, 5]], [[0, 1, 9, 6], [0, 1, 5, 5], [4, 0, 1, 1]], [[3, 0, 7, 7], [0, 1, 6, 6], [2, 0, 6, 6]], [[3, 0, 9, 7], [2, 0, 6, 5], [0, 3, 4, 2]], [[3, 0, 7, 8], [3, 0, 7, 4], [3, 0, 6, 4]], [[3, 0, 9, 9], [2, 0, 9, 8], [2, 0, 9, 6]], [[0, 2, 4, 6], [0, 2, 3, 6], [1, 0, 2, 4]], [[0, 1, 9, 2], [0, 1, 7, 2], [4, 0, 5, 1]], [[4, 0, 7, 8], [3, 0, 6, 6], [2, 0, 3, 4]], [[0, 1, 6, 9], [0, 1, 5, 6], [0, 1, 3, 4]], [[0, 3, 6, 7], [3, 0, 5, 5], [3, 0, 5, 4]], [[0, 4, 9, 10], [4, 0, 4, 10], [0, 2, 4, 10]], [[3, 0, 5, 7], [3, 0, 4, 6], [3, 0, 4, 5]], [[0, 5, 3, 8], [0, 5, 3, 7], [0, 5, 3, 6]], [[5, 0, 8, 6], [0, 2, 7, 6], [3, 0, 3, 4]], [[0, 4, 6, 2], [0, 4, 3, 1], [1, 0, 1, 1]], [[0, 5, 8, 1], [1, 0, 7, 1], [0, 3, 6, 1]], [[0, 4, 7, 9], [5, 0, 4, 6], [5, 0, 3, 3]], [[3, 0, 8, 8], [0, 1, 6, 7], [0, 1, 5, 7]], [[3, 0, 4, 6], [0, 3, 3, 5], [0, 3, 2, 5]], [[0, 5, 9, 7], [3, 0, 9, 7], [3, 0, 8, 7]], [[0, 3, 7, 10], [2, 0, 5, 8], [2, 0, 4, 6]], [[5, 0, 8, 8], [5, 0, 8, 7], [5, 0, 6, 6]], [[0, 4, 10, 8], [0, 3, 7, 5], [2, 0, 5, 2]], [[0, 3, 2, 5], [0, 2, 2, 5], [0, 1, 2, 4]], [[0, 3, 6, 7], [0, 2, 4, 6], [1, 0, 4, 3]], [[0, 5, 6, 10], [0, 4, 4, 8], [0, 3, 4, 6]], [[0, 3, 10, 7], [0, 3, 7, 5], [0, 3, 6, 4]], [[4, 0, 8, 6], [2, 0, 5, 6], [0, 4, 4, 5]], [[0, 2, 9, 5], [5, 0, 9, 4], [0, 1, 9, 2]], [[1, 0, 7, 8], [1, 0, 5, 4], [0, 5, 3, 3]], [[2, 0, 10, 6], [0, 1, 9, 6], [2, 0, 9, 5]], [[2, 0, 7, 9], [0, 1, 5, 9], [2, 0, 4, 8]], [[0, 2, 3, 8], [0, 2, 3, 5], [4, 0, 3, 4]], [[0, 4, 3, 9], [1, 0, 2, 8], [1, 0, 2, 6]], [[4, 0, 6, 8], [0, 3, 4, 7], [2, 0, 1, 3]], [[4, 0, 4, 6], [2, 0, 4, 5], [1, 0, 4, 4]], [[5, 0, 5, 2], [0, 2, 3, 2], [3, 0, 3, 2]], [[3, 0, 8, 5], [3, 0, 7, 4], [2, 0, 6, 3]], [[3, 0, 5, 7], [3, 0, 5, 6], [0, 1, 4, 4]], [[4, 0, 4, 8], [3, 0, 2, 9], [3, 0, 2, 8]], [[0, 3, 10, 7], [0, 3, 9, 5], [2, 0, 9, 5]], [[0, 5, 2, 9], [0, 5, 2, 4], [0, 5, 1, 2]], [[4, 0, 4, 3], [2, 0, 4, 3], [2, 0, 4, 2]], [[0, 3, 6, 8], [3, 0, 5, 7], [3, 0, 4, 4]], [[4, 0, 10, 8], [0, 3, 10, 7], [4, 0, 10, 5]], [[4, 0, 2, 7], [3, 0, 2, 5], [2, 0, 2, 3]], [[0, 5, 4, 6], [0, 4, 3, 5], [3, 0, 3, 1]], [[2, 0, 10, 6], [0, 4, 9, 4], [1, 0, 8, 2]], [[0, 4, 8, 8], [0, 4, 6, 7], [1, 0, 5, 7]], [[0, 3, 10, 9], [0, 2, 9, 7], [2, 0, 7, 6]], [[0, 3, 10, 3], [0, 3, 7, 2], [0, 2, 6, 1]], [[1, 0, 8, 9], [1, 0, 5, 7], [0, 1, 3, 6]], [[5, 0, 9, 7], [5, 0, 9, 6], [0, 3, 9, 6]], [[0, 2, 5, 7], [3, 0, 5, 7], [0, 1, 1, 6]], [[0, 3, 8, 4], [1, 0, 3, 4], [1, 0, 2, 2]], [[0, 1, 9, 9], [2, 0, 9, 9], [1, 0, 7, 8]], [[3, 0, 6, 7], [3, 0, 5, 7], [0, 4, 5, 7]], [[1, 0, 5, 5], [0, 1, 5, 4], [1, 0, 5, 4]], [[0, 0, 0, 0]]]
